p cnf 99 315
2 3 -4 0
-2 -3 -4 0
2 -3 4 0
-2 3 4 0
1 4 -5 0
-1 -4 -5 0
1 -4 5 0
-1 4 5 0
-6 -5 0
-6 -2 0
5 2 6 0
7 -6 0
7 -6 0
6 -7 0
11 -9 0
11 10 0
9 -10 -11 0
12 -8 0
12 11 0
8 -11 -12 0
13 -7 0
13 -12 0
7 12 -13 0
-15 3 0
-15 14 0
-3 -14 15 0
16 15 0
16 -14 0
-15 14 -16 0
-17 6 0
-17 16 0
-6 -16 17 0
17 -2 -18 0
-17 2 -18 0
17 2 18 0
-17 -2 18 0
-19 15 0
-19 12 0
-15 -12 19 0
-1 21 -22 0
1 -21 -22 0
-1 -21 22 0
1 21 22 0
20 -22 -23 0
-20 22 -23 0
20 22 23 0
-20 -22 23 0
-24 19 0
-24 23 0
-19 -23 24 0
25 -1 -26 0
-25 1 -26 0
25 1 26 0
-25 -1 26 0
-25 -27 0
25 -27 0
27 25 -28 0
-27 -25 -28 0
27 -25 28 0
-27 25 28 0
30 29 0
30 2 0
-29 -2 -30 0
-28 -30 -31 0
28 30 -31 0
-28 30 31 0
28 -30 31 0
32 31 0
32 29 0
-31 -29 -32 0
26 -32 -33 0
-26 32 -33 0
26 32 33 0
-26 -32 33 0
34 -4 0
34 4 0
-34 -3 -35 0
34 3 -35 0
-34 3 35 0
34 -3 35 0
-36 -33 0
-36 35 0
33 -35 36 0
-38 37 0
-38 14 0
-37 -14 38 0
39 7 0
39 27 0
-7 -27 -39 0
40 -38 0
40 39 0
38 -39 -40 0
36 40 -41 0
-36 -40 -41 0
36 -40 41 0
-36 40 41 0
42 24 0
42 -41 0
-24 41 -42 0
44 43 0
44 -14 0
-43 14 -44 0
-42 -44 -45 0
42 44 -45 0
-42 44 45 0
42 -44 45 0
18 45 -46 0
-18 -45 -46 0
18 -45 46 0
-18 45 46 0
-13 46 -47 0
13 -46 -47 0
-13 -46 47 0
13 46 47 0
-48 15 0
-48 11 0
-15 -11 48 0
49 27 0
49 -25 0
-27 25 -49 0
-50 -9 0
-50 49 0
9 -49 50 0
51 -4 0
51 9 0
4 -9 -51 0
-52 25 0
-52 29 0
-25 -29 52 0
52 25 -53 0
-52 -25 -53 0
52 -25 53 0
-52 25 53 0
-54 -14 0
-54 -53 0
14 53 54 0
55 -12 0
55 54 0
12 -54 -55 0
56 -51 0
56 -55 0
51 55 -56 0
57 -50 0
57 56 0
50 -56 -57 0
-58 -34 0
-58 9 0
34 -9 58 0
-57 -58 -59 0
57 58 -59 0
-57 58 59 0
57 -58 59 0
-60 48 0
-60 59 0
-48 -59 60 0
-61 1 -62 0
61 -1 -62 0
-61 -1 62 0
61 1 62 0
-63 4 0
-63 62 0
-4 -62 63 0
-60 63 -64 0
60 -63 -64 0
-60 -63 64 0
60 63 64 0
-65 47 0
-65 64 0
-47 -64 65 0
-66 -37 0
-66 5 0
37 -5 66 0
-66 53 -67 0
66 -53 -67 0
-66 -53 67 0
66 53 67 0
68 -8 0
68 37 0
8 -37 -68 0
69 -68 0
69 5 0
68 -5 -69 0
-6 -69 -70 0
6 69 -70 0
-6 69 70 0
6 -69 70 0
67 -70 -71 0
-67 70 -71 0
67 70 71 0
-67 -70 71 0
-72 -20 0
-72 10 0
20 -10 72 0
-72 -53 -73 0
72 53 -73 0
-72 53 73 0
72 -53 73 0
74 -14 0
74 -73 0
14 73 -74 0
-74 -49 -75 0
74 49 -75 0
-74 49 75 0
74 -49 75 0
77 -28 0
77 -76 0
28 76 -77 0
78 61 0
78 -31 0
-61 31 -78 0
79 -77 0
79 -78 0
77 78 -79 0
80 75 0
80 79 0
-75 -79 -80 0
81 71 0
81 -80 0
-71 80 -81 0
82 65 0
82 -81 0
-65 81 -82 0
83 12 -84 0
-83 -12 -84 0
83 -12 84 0
-83 12 84 0
-85 -27 0
-85 -21 0
27 21 85 0
-86 -84 0
-86 -85 0
84 85 86 0
-87 76 0
-87 73 0
-76 -73 87 0
88 37 0
88 87 0
-37 -87 -88 0
-89 86 0
-89 88 0
-86 -88 89 0
29 -53 -90 0
-29 53 -90 0
29 53 90 0
-29 -53 90 0
91 -90 0
91 12 0
90 -12 -91 0
-92 -21 0
-92 3 0
21 -3 92 0
-93 -2 0
-93 -92 0
2 92 93 0
94 93 0
94 62 0
-93 -62 -94 0
-95 91 0
-95 94 0
-91 -94 95 0
-96 -89 0
-96 -95 0
89 95 96 0
97 14 0
97 -8 0
-14 8 -97 0
-98 96 0
-98 97 0
-96 -97 98 0
82 -98 -99 0
-82 98 -99 0
82 98 99 0
-82 -98 99 0
-20 32 -12 0
58 -76 -98 0
-95 54 0
88 -60 0
81 1 -65 51 -67 -93 0
32 26 83 90 0
-67 80 -24 0
-60 -43 -89 55 -50 0
54 -8 0
-90 -52 -35 -49 61 0
-83 92 18 43 -33 59 0
72 -83 20 43 0
54 -25 -67 -41 -28 0
19 -52 21 -75 -97 95 0
50 2 80 -10 44 95 0
43 86 0
3 18 0
57 -73 -91 4 -69 -74 0
77 45 7 -50 0
3 -56 38 -91 -27 0
-33 25 75 0
-69 -33 85 36 98 0
4 52 -25 0
-56 33 -42 -84 -57 0
-56 -22 96 13 0
6 -81 -37 -28 -98 40 0
32 -20 -51 -38 0
63 -38 86 16 -66 71 0
-35 -74 -38 5 17 0
-49 34 0
-12 80 78 -68 0
-7 -38 -5 -32 -47 -12 0
6 -42 0
89 79 -7 17 -71 -50 0
76 -43 86 -12 -61 0
16 -80 -24 -88 0
-56 -41 -14 0
76 5 -21 0
-94 49 -14 12 -17 0
67 83 0
7 -67 4 34 50 76 0
99 0
